c --- [ banner ] -------------------------------------------------------------
c 
c CaDiCaL Radically Simplified CDCL SAT Solver
c Copyright (c) 2016-2021 A. Biere, M. Fleury, N. Froleyks
c 
c Version 1.5.2 a5f15211db36c3956764e18194dd5bd63bf3b5e6
c g++ (GCC) 9.3.0 -Wall -Wextra -O3 -DNDEBUG
c Fri Oct 21 01:27:37 EDT 2022 Linux gra-login3 3.10.0-1160.66.1.el7.x86_64 x86_64
c 
c --- [ limit ] --------------------------------------------------------------
c 
c setting conflict limit to 200000 conflicts (due to '200000')
c 
c --- [ parsing input ] ------------------------------------------------------
c 
c reading DIMACS file from '33.cubes277.adj'
c opening file to read '33.cubes277.adj'
c found 'p cnf 6160 1595469' header
c parsed 1595469 clauses in 18.92 seconds process time
c closing file '33.cubes277.adj'
c after reading 1457566737 bytes 1390.0 MB
c 
c --- [ options ] ------------------------------------------------------------
c 
c all options are set to their default value
c 
c --- [ solving ] ------------------------------------------------------------
c 
c time measured in process time since initialization
c 
c  seconds    reductions  redundant   irredundant
c          MB     restarts       trail       variables
c            level   conflicts       glue         remaining
c 
c * 18.92 1365  0 0   0    0    0  0% 0 1595422 2451 40%
c { 20.88 1444  0 0   0    0    0  0% 0 1595422 2451 40%
c i 21.26 1451 887 0   0   13   12 32% 1 1595422 2440 40%
c i 22.30 1472 774 0   2   20   18 33% 6 1595422 2429 39%
c i 23.52 1487 357 0   3   61   48 23% 10 1595422 2428 39%
c i 24.17 1494 324 0   6   71   56 23% 15 1595422 2410 39%
c i 24.81 1497 276 0  11   90   69 23% 16 1595422 2400 39%
c i 24.83 1497 268 0  11   93   70 23% 16 1595422 2399 39%
c i 25.39 1502 245 0  16  107   82 24% 19 1595422 2398 39%
c i 25.87 1507 202 0  21  132   95 23% 17 1595422 2397 39%
c i 26.11 1508 196 0  21  138   99 23% 17 1595422 2395 39%
c i 26.39 1508 188 0  22  160  116 23% 18 1595422 2394 39%
c i 26.50 1508 186 0  24  166  121 24% 19 1595422 2393 39%
c i 26.53 1508 186 0  24  167  121 24% 18 1595422 2392 39%
c i 26.70 1509 180 0  29  184  134 23% 20 1595422 2390 39%
c i 26.83 1509 179 0  30  187  136 23% 20 1595422 2389 39%
c i 26.84 1509 178 0  31  189  137 23% 20 1595422 2388 39%
c i 27.21 1510 168 0  33  207  150 23% 19 1595422 2387 39%
c i 27.34 1510 163 0  33  214  156 23% 19 1595422 2386 39%
c i 27.39 1510 159 0  33  222  162 24% 19 1595422 2385 39%
c 
c  seconds     reductions  redundant    irredundant
c          MB      restarts       trail        variables
c             level   conflicts       glue          remaining
c 
c i 27.44 1510 157 0  33  226  164 24% 19 1595422 2384 39%
c i 27.49 1510 153 0  35  233  169 24% 20 1595422 2383 39%
c i 27.52 1510 151 0  35  237  169 24% 19 1595422 2382 39%
c i 27.55 1510 151 0  35  241  169 24% 19 1595422 2378 39%
c i 27.76 1510 154 0  35  255  180 24% 18 1595422 2377 39%
c i 27.79 1510 154 0  35  259  183 24% 18 1595422 2376 39%
c i 27.83 1510 156 0  35  269  189 24% 21 1595422 2375 39%
c i 27.97 1510 154 0  38  276  195 24% 21 1595422 2374 39%
c i 27.97 1510 154 0  38  277  195 24% 20 1595422 2373 39%
c i 27.98 1510 153 0  38  278  195 24% 20 1595422 2372 39%
c i 28.02 1510 150 0  40  286  201 24% 21 1595422 2371 38%
c i 28.06 1510 150 0  41  288  202 24% 21 1595422 2370 38%
c i 28.07 1510 149 0  43  294  207 24% 21 1595422 2369 38%
c - 31.78 1461 149 1  46  302  215 24% 21 293511 2369 38%
c i 32.53 1373 133 1  60  360  261 25% 22 293511 2368 38%
c i 32.61 1373 130 1  60  373  273 25% 22 293511 2367 38%
c i 32.74 1373 129 1  63  384  280 25% 23 293511 2366 38%
c i 33.93 1374 114 1  98  544  418 25% 27 293511 2365 38%
c i 33.97 1374 113 1  99  548  421 25% 27 293511 2364 38%
c i 33.98 1374 113 1  99  550  422 25% 27 293511 2363 38%
c 
c  seconds     reductions  redundant   irredundant
c          MB      restarts       trail       variables
c             level   conflicts       glue         remaining
c 
c i 34.49 1374 112 1 106  583  451 25% 27 293511 2362 38%
c i 34.50 1374 112 1 106  587  454 25% 27 293511 2361 38%
c i 34.55 1374 112 1 106  604  459 25% 27 293511 2360 38%
c i 34.58 1374 112 1 107  608  461 25% 28 293511 2359 38%
c i 34.62 1374 112 1 108  609  461 25% 27 293511 2358 38%
c i 34.66 1374 112 1 110  619  468 25% 28 293511 2357 38%
c i 34.96 1374 114 1 122  669  512 25% 28 293511 2356 38%
c i 34.97 1374 113 1 124  679  521 25% 28 293511 2355 38%
c i 35.05 1374 113 1 128  699  539 25% 30 293511 2354 38%
c i 35.11 1374 113 1 131  709  546 25% 30 293511 2353 38%
c i 35.28 1374 113 1 137  733  567 25% 31 293511 2350 38%
c i 35.61 1374 108 1 147  799  616 26% 31 293511 2349 38%
c i 35.65 1374 107 1 147  808  624 26% 31 293511 2348 38%
c i 35.69 1374 105 1 147  840  647 26% 31 293511 2347 38%
c i 35.72 1374 102 1 147  869  663 26% 30 293511 2346 38%
c i 35.77 1374 100 1 147  895  685 26% 30 293511 2345 38%
c i 35.80 1374 100 1 147  901  690 26% 30 293511 2344 38%
c i 35.82 1374 100 1 147  908  696 26% 30 293511 2343 38%
c i 35.83 1374 100 1 147  909  696 26% 30 293511 2342 38%
c i 35.84 1374 100 1 147  911  697 26% 30 293511 2341 38%
c 
c  seconds    reductions  redundant   irredundant
c          MB     restarts       trail       variables
c            level   conflicts       glue         remaining
c 
c i 35.86 1374 99 1 147  919  703 26% 30 293511 2340 38%
c i 35.90 1374 97 1 147  953  732 26% 30 293511 2339 38%
c i 35.92 1374 96 1 147  963  741 26% 30 293511 2338 38%
c i 35.95 1374 94 1 147  991  758 26% 30 293511 2337 38%
c i 35.96 1374 94 1 147  995  761 26% 30 293511 2336 38%
c } 36.00 1374 94 1 147 1000  766 26% 30 293511 2336 38%
c [ 36.00 1374  0 1 147 1000  766  0% 0 293511 2336 38%
c O 36.02 1374 24 1 147 1002  768 22% 15 293511 2336 38%
c i 36.04 1374 12 1 147 1004  769 17% 8 293511 2289 37%
c i 36.04 1374 10 1 147 1005  769 16% 6 293511 2279 37%
c i 36.35 1374  9 1 147 1033  784 20% 6 293511 2278 37%
c i 36.36 1374  9 1 147 1034  784 20% 6 293511 2277 37%
c i 36.36 1374  9 1 147 1035  784 20% 6 293511 2276 37%
c i 36.42 1374 15 1 147 1044  792 21% 6 293511 2275 37%
c i 36.54 1374 26 1 147 1055  802 23% 11 293511 2274 37%
c i 36.55 1374 27 1 147 1060  805 24% 11 293511 2273 37%
c i 36.60 1374 30 1 147 1083  815 26% 17 293511 2272 37%
c i 36.61 1374 31 1 147 1093  824 26% 18 293511 2271 37%
c i 36.61 1374 30 1 147 1095  824 27% 18 293511 2270 37%
c i 36.69 1374 33 1 147 1152  858 28% 23 293511 2269 37%
c 
c  seconds    reductions  redundant   irredundant
c          MB     restarts       trail       variables
c            level   conflicts       glue         remaining
c 
c i 36.70 1374 32 1 147 1153  858 28% 22 293511 2268 37%
c i 36.70 1374 33 1 147 1157  861 28% 23 293511 2267 37%
c i 36.72 1374 33 1 147 1174  872 28% 24 293511 2266 37%
c - 37.39 1487 34 2 147 1183  804 28% 24 292352 2266 37%
c i 37.56 1487 34 2 147 1215  822 29% 25 292352 2265 37%
c i 37.70 1487 35 2 147 1289  878 29% 26 292352 2264 37%
c i 37.80 1487 34 2 147 1390  949 29% 26 292352 2263 37%
c i 37.84 1487 33 2 147 1430  972 29% 25 292352 2262 37%
c i 37.86 1487 33 2 147 1462  997 29% 25 292352 2261 37%
c i 37.97 1487 30 2 147 1639 1116 29% 24 292352 2260 37%
c i 38.09 1487 28 2 147 1837 1229 29% 23 292352 2259 37%
c i 38.20 1487 27 2 147 2008 1313 30% 22 292352 2258 37%
c i 38.50 1487 25 2 148 2454 1584 30% 21 292352 2257 37%
c - 38.90 1485 25 3 148 2503 1206 30% 21 292325 2257 37%
c i 39.49 1485 24 3 148 2861 1452 49% 19 292325 2256 37%
c ] 39.59 1485 23 3 148 3001 1555 49% 19 292325 2256 37%
c { 39.59 1485 94 3 148 3001 1555 71% 30 292325 2256 37%
c F 39.66 1485 94 3 148 3003 1557 71% 30 292325 2256 37%
c i 40.52 1485 82 3 152 3294 1781 65% 28 292325 2255 37%
c i 41.37 1485 64 3 157 3876 2251 58% 24 292325 2254 37%
c 
c  seconds    reductions  redundant   irredundant
c          MB     restarts       trail       variables
c            level   conflicts       glue         remaining
c 
c i 41.38 1485 63 3 157 3881 2254 58% 24 292325 2253 37%
c i 41.40 1485 63 3 157 3914 2273 58% 24 292325 2247 36%
c - 41.85 1375 56 4 157 4263 1878 56% 22 231778 2246 36%
c i 42.23 1375 53 4 157 4423 1992 55% 22 231778 2245 36%
c i 44.21 1375 52 4 180 4816 2315 54% 22 231778 2244 36%
c d 45.53 1375 53 4 227 5003 2473 52% 23 213013 2233 36%
c 2 45.59 1375 53 4 227 5003 3635 52% 23 212982 2233 36%
c p 48.25 1375 53 4 227 5003 6429 52% 23 212982 2209 36%
c d 48.48 1375 53 4 227 5003 6421 52% 23 212909 2208 36%
c # 49.85 1375 46 4 254 6006 7128 51% 22 212909 2208 36%
c - 50.53 1376 45 5 254 6315 2636 51% 21 212909 2208 36%
c } 50.56 1376 45 5 254 6342 2661 51% 21 212909 2208 36%
c 1 50.56 1376 45 5 254 6342 2661 51% 21 212909 2208 36%
c 
c --- [ writing output ] -----------------------------------------------------
c 
c writing simplified CNF to DIMACS file 'simp/33.cubes277.adj.simp1'
c * 50.56 1376 45 5 254 6342 2661 51% 21 212909 2208 36%
c opening file to write 'simp/33.cubes277.adj.simp1'
c writing 'p cnf 6160 212909' header
c closing file 'simp/33.cubes277.adj.simp1'
c after writing 92213830 bytes 87.9 MB
c wrote 212909 clauses in 0.68 seconds process time
c 
c --- [ writing extension ] --------------------------------------------------
c 
c writing extension stack to 'simp/33.cubes277.adj.ext1'
c opening file to write 'simp/33.cubes277.adj.ext1'
c closing file 'simp/33.cubes277.adj.ext1'
c after writing 12230 bytes 0.0 MB
c wrote 820 witnesses in 0.00 seconds process time
c 
c --- [ result ] -------------------------------------------------------------
c 
s SATISFIABLE
c 
c --- [ run-time profiling ] -------------------------------------------------
c 
c process time taken by individual solving procedures
c (percentage relative to process time for solving)
c 
c        28.33   89.53% search
c        22.77   71.97% unstable
c        18.92   59.80% parse
c         3.59   11.36% stable
c         3.31   10.47% simplify
c         2.66    8.41% probe
c         1.96    6.20% lucky
c         0.04    0.14% ternary
c   =================================
c        31.64   61.75% solve
c 
c last line shows process time for solving
c (percentage relative to total process time)
c 
c --- [ statistics ] ---------------------------------------------------------
c 
c chronological:              1753        27.64 %  of conflicts
c conflicts:                  6342       200.44    per second
c decisions:                 34899      1102.99    per second
c fixed:                       796        12.92 %  of all variables
c learned:                    6181        97.46 %  per conflict
c learned_lits:             931660       100.00 %  learned literals
c minimized:                     0         0.00 %  learned literals
c shrunken:                 531902        57.09 %  learned literals
c minishrunken:              80833         8.68 %  learned literals
c propagations:            1144265         0.04 M  per second
c reduced:                    2061        32.50 %  per conflict
c rephased:                      3      2114.00    interval
c restarts:                    254        24.97    interval
c stabilizing:                   1        31.55 %  of conflicts
c substituted:                  12         0.19 %  of all variables
c subsumed:                   1512         0.05 %  of all clauses
c ternary:                    1162         0.54 %  of resolved
c weakened:                     24         2.00    average size
c 
c seconds are measured in process time for solving
c 
c --- [ resources ] ----------------------------------------------------------
c 
c total process time since initialization:        51.24    seconds
c total real time since initialization:           55.69    seconds
c maximum resident set size of process:         1597.73    MB
c 
c --- [ shutting down ] ------------------------------------------------------
c 
c exit 10
WARNING! DIMACS header mismatch: wrong number of variables.
============================[ Problem Statistics ]=============================
|                                                                             |
|  Number of variables:          6120                                         |
|  Number of clauses:          212911                                         |
|  Parse time:                   1.23 s                                       |
|  Simplification time:          0.04 s                                       |
|                                                                             |
============================[ Search Statistics ]====================================================
| Conflicts |          ORIGINAL         |          LEARNT          | Num Sols |      SUBGRAPHS      |
|           |    Vars  Clauses Literals |    Limit  Clauses Lit/Cl |          | Canonical Noncanon. |
=====================================================================================================
|       105 |    6026   212916 19954533 |     2000      105     83 |        0 |        28         5 |
|       264 |    6026   212925 19955171 |     2000      264     92 |        0 |        30        14 |
|       493 |    6026   212929 19955249 |     2000      493     90 |        0 |        37        18 |
|       854 |    6026   212953 19955923 |     2000      854     91 |        0 |        46        42 |
|      1390 |    6026   212983 19956662 |     2000     1390     91 |        0 |        56        72 |
|      2333 |    6026   213167 19960685 |     3600     1333     61 |        0 |       108       256 |
|      3527 |    6026   213222 19961622 |     3600     2527     75 |        0 |       142       311 |
|      5410 |    6026   213397 19964930 |     5002     2612     64 |        0 |       238       486 |
|      8760 |    6026   214185 19978240 |     6305     3465     48 |        0 |       397      1274 |
|     12838 |    6026   214419 19983154 |     7555     4393     46 |        0 |       566      1508 |
|     19236 |    6026   215051 19994879 |     8782     7018     58 |        0 |       749      2140 |
|     28248 |    6026   215414 20002350 |    11205     6653     47 |        0 |       888      2503 |
|     41870 |    6026   216062 20015854 |    13613     8483     48 |        0 |      1279      3151 |
|     62605 |    6026   217336 20039914 |    16008    15013     62 |        0 |      1976      4425 |
|     93345 |    6026   218884 20069911 |    20806    10151     27 |        0 |      2721      5973 |
|    139550 |    6026   221300 20106936 |    24411    23361     67 |        0 |      3910      8389 |
|    209743 |    6026   225809 20171750 |    30410    26553     60 |        0 |      5509     12898 |
|    315448 |    6026   232988 20297798 |    37625    32073     63 |        0 |      8870     20077 |
|    475326 |    6026   245077 20461556 |    47222    24748     31 |        0 |     13028     32166 |
|    708658 |    6026   256726 20629366 |    56809    52467     65 |        0 |     18865     43815 |
|   1077327 |    6026   292870 21172080 |    71222    40749     39 |        0 |     31226     79959 |
|   1616258 |    6026   333013 21784062 |    86822    70080     56 |        0 |     48171    120102 |
|   2481894 |    6002   358945 22173268 |    98320    52614     39 |        0 |     79672    237556 |
=====================================================================================================
Number of solutions   : 0
Canonical subgraphs   : 81831          (21 /sec)
          order  3    : 1              (125000 /sec)
          order  4    : 1              (333333 /sec)
          order  5    : 1              (142857 /sec)
          order  6    : 1              (33333 /sec)
          order  7    : 1              (5405 /sec)
          order  8    : 2              (962 /sec)
          order  9    : 7              (329 /sec)
          order 10    : 25             (95 /sec)
          order 11    : 105            (30 /sec)
          order 12    : 623            (16 /sec)
          order 13    : 3780           (18 /sec)
          order 14    : 22588          (23 /sec)
          order 15    : 37319          (21 /sec)
          order 16    : 11081          (19 /sec)
          order 17    : 4682           (17 /sec)
          order 18    : 1080           (16 /sec)
          order 19    : 447            (15 /sec)
          order 20    : 56             (17 /sec)
          order 21    : 31             (15 /sec)
          order 22    : 0              (-nan /sec)
Noncanonical subgraphs: 254674         (269 /sec)
          order  3    : 0              (-nan /sec)
          order  4    : 0              (-nan /sec)
          order  5    : 0              (-nan /sec)
          order  6    : 0              (-nan /sec)
          order  7    : 0              (-nan /sec)
          order  8    : 0              (-nan /sec)
          order  9    : 0              (-nan /sec)
          order 10    : 0              (-nan /sec)
          order 11    : 0              (-nan /sec)
          order 12    : 0              (-nan /sec)
          order 13    : 8633           (6722 /sec)
          order 14    : 96065          (970 /sec)
          order 15    : 32306          (1264 /sec)
          order 16    : 116750         (145 /sec)
          order 17    : 882            (83 /sec)
          order 18    : 4              (738 /sec)
          order 19    : 1              (32258 /sec)
          order 20    : 0              (-nan /sec)
          order 21    : 0              (-nan /sec)
Canonicity checking   : 3962.52 s
Noncanonicity checking: 945.738 s
Total canonicity time : 4908.26 s
database reductions   : 90
restarts              : 4474
conflicts             : 2597573        (416 /sec)
decisions             : 3500926        (0.00 % random) (561 /sec)
propagations          : 314667297      (50420 /sec)
conflict literals     : 260364672      (55.19 % deleted)
actual reward         : 0.111209
Memory used           : 386.00 MB
CPU time              : 6240.93 s

UNSATISFIABLE
